(assert (forall ((pkt_0_6_8_0  Int  )(pkt_1_7_9_0  Int  )(state_group_0_state_0_8_a_0  Int  )(state_group_1_state_0_9_b_0  Int  )(state_group_2_state_0_a_c_0  Int  )) (let ((_n0 pkt_0_6_8_0 ))
(let ((_n1 state_group_0_state_0_8_a_0 ))
(let ((_n2 (+   _n1   _n0 ) ))
(let ((_n3 false ))
(let ((_n4 (<   (ite  _n3  1 0)   _n0 ) ))
(let ((_n5 (ite  _n4   _n0   (ite  _n3  1 0)  ) ))
(let ((_n6 (+   _n1   _n5 ) ))
(let ((_n7 (ite (=  (ite  _n4  1 0)  1)  _n6   _n1  ) ))
(let ((_n8 (=   _n7   _n2 ) ))
(let ((_n10 30 ))
(let ((_n11 pkt_1_7_9_0 ))
(let ((_n12 (<   _n11   _n10 ) ))
(let ((_n13 state_group_1_state_0_9_b_0 ))
(let ((_n14 (+   _n13   _n11 ) ))
(let ((_n15 (ite  _n12   _n14   _n13  ) ))
(let ((_n16 952 ))
(let ((_n17 (=   _n13   _n16 ) ))
(let ((_n18 (not  _n17 ) ))
(let ((_n19 (ite (=  _n13  952)  (ite  _n3  1 0)   _n11  ) ))
(let ((_n20 (+   _n13   _n19 ) ))
(let ((_n21 (ite (=  (ite  _n18  1 0)  1)  _n20   _n13  ) ))
(let ((_n22 (=   _n21   _n15 ) ))
(let ((_n24 state_group_2_state_0_a_c_0 ))
(let ((_n25 true ))
(let ((_n26 (+   _n24   (ite  _n25  1 0) ) ))
(let ((_n27 (ite  _n12   _n26   _n24  ) ))
(let ((_n28 301 ))
(let ((_n29 (=   _n0   _n28 ) ))
(let ((_n30 (not  _n29 ) ))
(let ((_n31 (+   _n24   (ite  _n30  1 0) ) ))
(let ((_n32 (ite (=  (ite  _n30  1 0)  1)  _n31   _n24  ) ))
(let ((_n33 (=   _n32   _n27 ) ))
(let ((_n35 (=   _n0   (ite  _n3  1 0) ) ))
(let ((_n36 (not  _n35 ) ))
(let ((_n37 (ite (=  _n0  0)  (ite  _n3  1 0)   _n0  ) ))
(let ((_n38 (ite (=  (ite  _n36  1 0)  1)  _n37   (ite  _n3  1 0)  ) ))
(let ((_n39 (=   _n38   _n0 ) ))
(implies  (and (and (>= state_group_2_state_0_a_c_0 0) (< state_group_2_state_0_a_c_0 1024 ))  (and (and (>= state_group_1_state_0_9_b_0 0) (< state_group_1_state_0_9_b_0 1024 ))  (and (and (>= state_group_0_state_0_8_a_0 0) (< state_group_0_state_0_8_a_0 1024 ))  (and (and (>= pkt_1_7_9_0 0) (< pkt_1_7_9_0 1024 ))  (and (>= pkt_0_6_8_0 0) (< pkt_0_6_8_0 1024 )) ) ) ) )   (and  _n8  _n22  _n33  _n39 )  ))))))))))))))))))))))))))))))))))))))))
(check-sat)
(get-model)
(exit)